770.55 0
0 30 48 47 36 69 71 60 70 20 37 5 29 0 
0 7 35 53 11 38 10 31 55 25 0 
0 6 33 73 62 28 74 2 68 75 0 
0 13 57 15 21 61 22 64 42 41 43 1 0 
0 4 45 27 52 46 34 67 0 
0 51 16 63 56 23 49 24 18 50 44 3 0 
0 8 54 19 14 59 66 65 58 0 
0 17 40 32 9 39 72 12 26 0 
